NumGames = 8;
NumReferees = 20;
NumFields = 2;
game_id = [3742, 3744, 3746, 3755, 3756, 3758, 3760, 3762];
game_start = [1110, 900, 720, 1140, 1230, 1080, 900, 720];
game_end = [1230, 1020, 840, 1260, 1350, 1200, 1020, 840];
difficulty = [3, 2, 2, 1, 1, 3, 2, 2];
game_field = [1, 1, 1, 2, 2, 1, 1, 1];
referee_id = [1206, 2777, 3262, 3263, 3267, 3276, 3517, 3524, 3526, 3614, 3640, 3641, 7485, 7494, 7503, 7506, 7550, 7552, 7565, 7578];
main_exp = [277, 67, 105, 135, 36, 7, 34, 12, 57, 6, 1, 0, 0, 1, 18, 1, 2, 1, 14, 0];
assist_exp = [151, 50, 79, 101, 133, 13, 14, 61, 106, 44, 32, 1, 29, 12, 59, 42, 15, 8, 0, 0];
available_slots = array3d(1..NumReferees, 1..3, 1..2,[
  720,960, 0,0, 0,0,
  0,1440, 0,0, 0,0,
  0,1440, 0,0, 0,0,
  0,1440, 0,0, 0,0,
  0,1230, 0,0, 0,0,
  960,2400, 0,0, 0,0,
  0,1440, 0,0, 0,0,
  0,1260, 0,0, 0,0,
  0,1440, 0,0, 0,0,
  0,1440, 0,0, 0,0,
  900,1230, 0,0, 0,0,
  630,960, 0,0, 0,0,
  0,1080, 0,0, 0,0,
  0,840, 0,0, 0,0,
  0,1440, 0,0, 0,0,
  0,1440, 0,0, 0,0,
  0,1440, 0,0, 0,0,
  720,870, 1050,1230, 0,0,
  0,1023, 0,0, 0,0,
  720,1080, 0,0, 0,0,
]);